NAME : ../src/system/instance/algorithm/realworld/DVRP/LKH/temp file/cluster_temp.atsp
COMMENT : ATSP
TYPE : ATSP
DIMENSION : 5
EDGE_WEIGHT_TYPE : EXPLICIT
EDGE_WEIGHT_FORMAT : FULL_MATRIX
EDGE_WEIGHT_SECTION
9.999e+08 278.375 152.971 376.68 391.663 
174.16 9.999e+08 278.22 500.782 518 
68.5587 297.254 9.999e+08 429.55 446.684 
174.575 324.665 278.624 9.999e+08 80.9851 
166.289 316.016 270.571 487.109 9.999e+08 
EOF